
Gurobi 11.0.0 (win64) logging started Tue May 14 12:27:33 2024

Set parameter LogFile to value "./Results/StripPacking-BranchingRuleRuns/Logs/SBbL-010-StripPacking-10.log"
Set parameter TimeLimit to value 10800
Set parameter Cuts to value 0
Set parameter Presolve to value 1
Set parameter Heuristics to value 0
Set parameter LPWarmStart to value 2
Gurobi Optimizer version 11.0.0 build v11.0.0rc2 (win64 - Windows 10.0 (19045.2))

CPU model: Intel(R) Core(TM) i9-10980XE CPU @ 3.00GHz, instruction set [SSE2|AVX|AVX2|AVX512]
Thread count: 18 physical cores, 36 logical processors, using up to 18 threads

Optimize a model with 550 rows, 111 columns and 1820 nonzeros
Model fingerprint: 0x3ba4b07a
Variable types: 21 continuous, 90 integer (90 binary)
Coefficient statistics:
  Matrix range     [1e+00, 1e+04]
  Objective range  [1e+00, 1e+00]
  Bounds range     [1e+00, 1e+04]
  RHS range        [2e+00, 1e+04]
Using branch priorities.

User MIP start produced solution with objective 50 (0.02s)
Loaded user MIP start with objective 50

Presolve removed 90 rows and 0 columns
Presolve time: 0.03s
Presolved: 460 rows, 111 columns, 1550 nonzeros
Variable types: 21 continuous, 90 integer (90 binary)

Root relaxation: objective 3.500000e+01, 48 iterations, 0.00 seconds (0.00 work units)

    Nodes    |    Current Node    |     Objective Bounds      |     Work
 Expl Unexpl |  Obj  Depth IntInf | Incumbent    BestBd   Gap | It/Node Time

     0     0   35.00000    0    2   50.00000   35.00000  30.0%     -    0s
     0     0   35.00000    0    2   50.00000   35.00000  30.0%     -    0s
     0     2   35.00000    0    2   50.00000   35.00000  30.0%     -    0s
*   66    64               6      46.0000000   35.00000  23.9%   9.7    0s
*  377   235              21      45.0000000   35.00000  22.2%   9.3    0s
*  980   430              34      44.0000000   35.00000  20.5%   6.7    0s
* 1068   536              23      42.0000000   35.00000  16.7%   6.5    0s
* 1463   599              34      41.0000000   35.00000  14.6%   6.0    0s
* 7049  1012              38      39.0000000   38.00000  2.56%   4.4    4s
  7447   984     cutoff   23        39.00000   38.00000  2.56%   4.3    6s
 12833   358   38.00000   23    7   39.00000   38.00000  2.56%   3.8   10s

Explored 17767 nodes (62157 simplex iterations) in 11.62 seconds (0.18 work units)
Thread count was 18 (of 36 available processors)

Solution count 7: 39 41 42 ... 50

Optimal solution found (tolerance 1.00e-04)
Best objective 3.900000000000e+01, best bound 3.900000000000e+01, gap 0.0000%

Gurobi 11.0.0 (win64) logging started Tue May 14 12:29:18 2024

Set parameter LogFile to value "./Results/StripPacking-BranchingRuleRuns/Logs/SBbL-010-StripPacking-10.log"
Set parameter TimeLimit to value 10800
Set parameter Cuts to value 0
Set parameter Presolve to value 1
Set parameter Heuristics to value 0
Set parameter LPWarmStart to value 2
Gurobi Optimizer version 11.0.0 build v11.0.0rc2 (win64 - Windows 10.0 (19045.2))

CPU model: Intel(R) Core(TM) i9-10980XE CPU @ 3.00GHz, instruction set [SSE2|AVX|AVX2|AVX512]
Thread count: 18 physical cores, 36 logical processors, using up to 18 threads

Optimize a model with 550 rows, 111 columns and 1820 nonzeros
Model fingerprint: 0x3ba4b07a
Variable types: 21 continuous, 90 integer (90 binary)
Coefficient statistics:
  Matrix range     [1e+00, 1e+04]
  Objective range  [1e+00, 1e+00]
  Bounds range     [1e+00, 1e+04]
  RHS range        [2e+00, 1e+04]
Using branch priorities.

User MIP start produced solution with objective 50 (0.00s)
Loaded user MIP start with objective 50

Presolve removed 90 rows and 0 columns
Presolve time: 0.00s
Presolved: 460 rows, 111 columns, 1550 nonzeros
Variable types: 21 continuous, 90 integer (90 binary)

Root relaxation: objective 3.500000e+01, 48 iterations, 0.00 seconds (0.00 work units)

    Nodes    |    Current Node    |     Objective Bounds      |     Work
 Expl Unexpl |  Obj  Depth IntInf | Incumbent    BestBd   Gap | It/Node Time

     0     0   35.00000    0    2   50.00000   35.00000  30.0%     -    0s
     0     0   35.00000    0    2   50.00000   35.00000  30.0%     -    0s
     0     2   35.00000    0    2   50.00000   35.00000  30.0%     -    0s
*   66    64               6      46.0000000   35.00000  23.9%   9.7    0s
*  377   235              21      45.0000000   35.00000  22.2%   9.3    0s
*  980   430              34      44.0000000   35.00000  20.5%   6.7    0s
* 1068   536              23      42.0000000   35.00000  16.7%   6.5    0s
* 1463   599              34      41.0000000   35.00000  14.6%   6.0    0s
* 7049  1012              38      39.0000000   38.00000  2.56%   4.4    0s

Explored 17767 nodes (62157 simplex iterations) in 0.23 seconds (0.18 work units)
Thread count was 18 (of 36 available processors)

Solution count 7: 39 41 42 ... 50

Optimal solution found (tolerance 1.00e-04)
Best objective 3.900000000000e+01, best bound 3.900000000000e+01, gap 0.0000%

Gurobi 11.0.0 (win64) logging started Thu May 16 08:58:33 2024

Set parameter LogFile to value "./Results/StripPacking-BranchingRuleRuns/Logs/SBbL-010-StripPacking-10.log"
Set parameter TimeLimit to value 10800
Set parameter Cuts to value 0
Set parameter Presolve to value 1
Set parameter Heuristics to value 0
Set parameter LPWarmStart to value 2
Gurobi Optimizer version 11.0.0 build v11.0.0rc2 (win64 - Windows 10.0 (19045.2))

CPU model: Intel(R) Core(TM) i9-10980XE CPU @ 3.00GHz, instruction set [SSE2|AVX|AVX2|AVX512]
Thread count: 18 physical cores, 36 logical processors, using up to 18 threads

Optimize a model with 550 rows, 111 columns and 1820 nonzeros
Model fingerprint: 0x3ba4b07a
Variable types: 21 continuous, 90 integer (90 binary)
Coefficient statistics:
  Matrix range     [1e+00, 1e+04]
  Objective range  [1e+00, 1e+00]
  Bounds range     [1e+00, 1e+04]
  RHS range        [2e+00, 1e+04]
Using branch priorities.

User MIP start produced solution with objective 50 (0.00s)
Loaded user MIP start with objective 50

Presolve removed 90 rows and 0 columns
Presolve time: 0.02s
Presolved: 460 rows, 111 columns, 1550 nonzeros
Variable types: 21 continuous, 90 integer (90 binary)

Root relaxation: objective 3.500000e+01, 48 iterations, 0.00 seconds (0.00 work units)

    Nodes    |    Current Node    |     Objective Bounds      |     Work
 Expl Unexpl |  Obj  Depth IntInf | Incumbent    BestBd   Gap | It/Node Time

     0     0   35.00000    0    2   50.00000   35.00000  30.0%     -    0s
     0     0   35.00000    0    2   50.00000   35.00000  30.0%     -    0s
     0     2   35.00000    0    2   50.00000   35.00000  30.0%     -    0s
*   66    64               6      46.0000000   35.00000  23.9%   9.7    0s
*  377   235              21      45.0000000   35.00000  22.2%   9.3    0s
*  980   430              34      44.0000000   35.00000  20.5%   6.7    0s
* 1068   536              23      42.0000000   35.00000  16.7%   6.5    0s
* 1463   599              34      41.0000000   35.00000  14.6%   6.0    0s
* 7049  1012              38      39.0000000   38.00000  2.56%   4.4    1s

Explored 17767 nodes (62157 simplex iterations) in 4.96 seconds (0.18 work units)
Thread count was 18 (of 36 available processors)

Solution count 7: 39 41 42 ... 50

Optimal solution found (tolerance 1.00e-04)
Best objective 3.900000000000e+01, best bound 3.900000000000e+01, gap 0.0000%
